NAME: random_40_8
TYPE: TSP
COMMENT: random_40_8
DIMENSION: 40
EDGE_WEIGHT_TYPE: EUC_2D
NODE_COORD_SECTION
1 424 415
2 206 149
3 94 189
4 285 68
5 486 299
6 284 206
7 265 75
8 102 38
9 461 375
10 350 105
11 477 255
12 468 72
13 192 332
14 447 420
15 128 237
16 351 94
17 419 413
18 41 280
19 457 480
20 29 427
21 299 376
22 168 17
23 462 207
24 242 476
25 130 233
26 121 433
27 268 436
28 331 378
29 378 74
30 43 263
31 390 349
32 16 91
33 216 381
34 390 432
35 474 280
36 295 309
37 213 274
38 257 463
39 484 319
40 278 14
